\ENCODING=ISO-8859-1
\Problem name: IloCplex

Maximize
 obj: 803 vnp1 - 96 (π,ρ)0↑e2 + 1342 vnp2 - 152 (π,ρ)1↑e4
      - 159 (π,ρ)2↑e6 - 168 (π,ρ)3↑e6
      - 174 (π,ρ)4↑e6 - 183 (π,ρ)5↑e6
      - 84 (π,ρ)6↑e6 - 93 (π,ρ)7↑e6
      - 147 (π,ρ)8↑e6 - 139 (π,ρ)9↑e6
      - 84 (π,ρ)10↑e7 - 120 (π,ρ)11↑e7
      - 124 (π,ρ)12↑e7 - 115 (π,ρ)13↑e7
      - 130 (π,ρ)14↑e7 - 151 (π,ρ)15↑e7
      - 159 (π,ρ)16↑e7 + 1354 vnp3 - 182 (π,ρ)17↑e8
      - 190 (π,ρ)18↑e8 - 196 (π,ρ)19↑e8
      - 197 (π,ρ)20↑e8 - 202 (π,ρ)21↑e8
      - 210 (π,ρ)22↑e8 - 216 (π,ρ)23↑e8
      - 217 (π,ρ)24↑e8 - 197 (π,ρ)25↑e8
      - 88 (π,ρ)26↑e9 - 98 (π,ρ)27↑e9
      - 140 (π,ρ)28↑e9 - 150 (π,ρ)29↑e9
      - 110 (π,ρ)30↑e9 - 120 (π,ρ)31↑e9
      - 134 (π,ρ)32↑e9 - 98 (π,ρ)33↑e9
      - 108 (π,ρ)34↑e9 - 315 (π,ρ)35↑e10
      - 331 (π,ρ)36↑e10 - 339 (π,ρ)37↑e10
      - 330 (π,ρ)38↑e10 - 354 (π,ρ)39↑e10
      - 365 (π,ρ)40↑e10 - 310 (π,ρ)41↑e10
      - 334 (π,ρ)42↑e10 - 356 (π,ρ)43↑e10
      - 366 (π,ρ)44↑e10 - 440 (π,ρ)45↑e10
      - 455 (π,ρ)46↑e10 - 464 (π,ρ)47↑e10 + 1803 vnp4
      - 120 (π,ρ)48↑e11 - 156 (π,ρ)49↑e11
      - 184 (π,ρ)50↑e11 - 188 (π,ρ)51↑e11
      - 164 (π,ρ)52↑e11 - 164 (π,ρ)53↑e11
      - 186 (π,ρ)54↑e12 - 201 (π,ρ)55↑e12
      - 210 (π,ρ)56↑e12 - 213 (π,ρ)57↑e12
      - 218 (π,ρ)58↑e12 - 240 (π,ρ)59↑e12
      - 226 (π,ρ)60↑e12 - 241 (π,ρ)61↑e12
      - 250 (π,ρ)62↑e12 - 218 (π,ρ)63↑e12
      - 223 (π,ρ)64↑e12 - 254 (π,ρ)65↑e12
      - 258 (π,ρ)66↑e12 - 285 (π,ρ)67↑e13
      - 309 (π,ρ)68↑e13 - 320 (π,ρ)69↑e13
      - 324 (π,ρ)70↑e13 - 278 (π,ρ)71↑e13
      - 334 (π,ρ)72↑e13 - 338 (π,ρ)73↑e13
      - 342 (π,ρ)74↑e13 - 296 (π,ρ)75↑e13
      - 311 (π,ρ)76↑e13 - 320 (π,ρ)77↑e13
      - 320 (π,ρ)78↑e13 - 300 (π,ρ)79↑e13
      - 312 (π,ρ)80↑e13 - 315 (π,ρ)81↑e13
      - 317 (π,ρ)82↑e13 - 174 (π,ρ)83↑e14
      - 180 (π,ρ)84↑e14 - 57 (π,ρ)85↑e16
      - 71 (π,ρ)86↑e16 - 72 (π,ρ)87↑e16
      - 73 (π,ρ)88↑e16 - 75 (π,ρ)89↑e16 + 1359 vnp5
      - 18 (π,ρ)90↑e18 - 21 (π,ρ)91↑e18
      - 23 (π,ρ)92↑e18 - 39 (π,ρ)93↑e18
      - 56 (π,ρ)94↑e18 - 56 (π,ρ)95↑e18
      - 39 (π,ρ)96↑e18 - 52 (π,ρ)97↑e19
      - 64 (π,ρ)98↑e19 - 88 (π,ρ)99↑e19
      - 76 (π,ρ)100↑e19 - 153 (π,ρ)101↑e20
      - 159 (π,ρ)102↑e20 - 162 (π,ρ)103↑e20
      - 132 (π,ρ)104↑e20 - 90 (π,ρ)105↑e20
      - 99 (π,ρ)106↑e20 - 129 (π,ρ)107↑e20
      - 67 (π,ρ)108↑e21
Subject To
 _EmbdConstr_vnp1e1#0:   vnp1  = 0
 _EmbdConstr_vnp1e2#1:   vnp1 - (π,ρ)0↑e2  = 0
 _EmbdConstr_vnp1e3#2:   vnp1  = 0
 _EmbdConstr_vnp2e4#3:   vnp2 - (π,ρ)1↑e4  = 0
 _EmbdConstr_vnp2e5#4:   vnp2  = 0
 _EmbdConstr_vnp2e6#5:   vnp2 - (π,ρ)2↑e6 - (π,ρ)3↑e6
                         - (π,ρ)4↑e6 - (π,ρ)5↑e6
                         - (π,ρ)6↑e6 - (π,ρ)7↑e6
                         - (π,ρ)8↑e6 - (π,ρ)9↑e6  = 0
 _EmbdConstr_vnp2e7#6:   vnp2 - (π,ρ)10↑e7 - (π,ρ)11↑e7
                         - (π,ρ)12↑e7 - (π,ρ)13↑e7
                         - (π,ρ)14↑e7 - (π,ρ)15↑e7
                         - (π,ρ)16↑e7  = 0
 _EmbdConstr_vnp3e8#7:   vnp3 - (π,ρ)17↑e8 - (π,ρ)18↑e8
                         - (π,ρ)19↑e8 - (π,ρ)20↑e8
                         - (π,ρ)21↑e8 - (π,ρ)22↑e8
                         - (π,ρ)23↑e8 - (π,ρ)24↑e8
                         - (π,ρ)25↑e8  = 0
 _EmbdConstr_vnp3e9#8:   vnp3 - (π,ρ)26↑e9 - (π,ρ)27↑e9
                         - (π,ρ)28↑e9 - (π,ρ)29↑e9
                         - (π,ρ)30↑e9 - (π,ρ)31↑e9
                         - (π,ρ)32↑e9 - (π,ρ)33↑e9
                         - (π,ρ)34↑e9  = 0
 _EmbdConstr_vnp3e10#9:  vnp3 - (π,ρ)35↑e10 - (π,ρ)36↑e10
                         - (π,ρ)37↑e10 - (π,ρ)38↑e10
                         - (π,ρ)39↑e10 - (π,ρ)40↑e10
                         - (π,ρ)41↑e10 - (π,ρ)42↑e10
                         - (π,ρ)43↑e10 - (π,ρ)44↑e10
                         - (π,ρ)45↑e10 - (π,ρ)46↑e10
                         - (π,ρ)47↑e10  = 0
 _EmbdConstr_vnp4e11#10: vnp4 - (π,ρ)48↑e11 - (π,ρ)49↑e11
                         - (π,ρ)50↑e11 - (π,ρ)51↑e11
                         - (π,ρ)52↑e11 - (π,ρ)53↑e11  = 0
 _EmbdConstr_vnp4e12#11: vnp4 - (π,ρ)54↑e12 - (π,ρ)55↑e12
                         - (π,ρ)56↑e12 - (π,ρ)57↑e12
                         - (π,ρ)58↑e12 - (π,ρ)59↑e12
                         - (π,ρ)60↑e12 - (π,ρ)61↑e12
                         - (π,ρ)62↑e12 - (π,ρ)63↑e12
                         - (π,ρ)64↑e12 - (π,ρ)65↑e12
                         - (π,ρ)66↑e12  = 0
 _EmbdConstr_vnp4e13#12: vnp4 - (π,ρ)67↑e13 - (π,ρ)68↑e13
                         - (π,ρ)69↑e13 - (π,ρ)70↑e13
                         - (π,ρ)71↑e13 - (π,ρ)72↑e13
                         - (π,ρ)73↑e13 - (π,ρ)74↑e13
                         - (π,ρ)75↑e13 - (π,ρ)76↑e13
                         - (π,ρ)77↑e13 - (π,ρ)78↑e13
                         - (π,ρ)79↑e13 - (π,ρ)80↑e13
                         - (π,ρ)81↑e13 - (π,ρ)82↑e13  = 0
 _EmbdConstr_vnp4e14#13: vnp4 - (π,ρ)83↑e14 - (π,ρ)84↑e14
                          = 0
 _EmbdConstr_vnp4e15#14: vnp4  = 0
 _EmbdConstr_vnp4e16#15: vnp4 - (π,ρ)85↑e16 - (π,ρ)86↑e16
                         - (π,ρ)87↑e16 - (π,ρ)88↑e16
                         - (π,ρ)89↑e16  = 0
 _EmbdConstr_vnp5e17#16: vnp5  = 0
 _EmbdConstr_vnp5e18#17: vnp5 - (π,ρ)90↑e18 - (π,ρ)91↑e18
                         - (π,ρ)92↑e18 - (π,ρ)93↑e18
                         - (π,ρ)94↑e18 - (π,ρ)95↑e18
                         - (π,ρ)96↑e18  = 0
 _EmbdConstr_vnp5e19#18: vnp5 - (π,ρ)97↑e19 - (π,ρ)98↑e19
                         - (π,ρ)99↑e19 - (π,ρ)100↑e19
                          = 0
 _EmbdConstr_vnp5e20#19: vnp5 - (π,ρ)101↑e20
                         - (π,ρ)102↑e20 - (π,ρ)103↑e20
                         - (π,ρ)104↑e20 - (π,ρ)105↑e20
                         - (π,ρ)106↑e20 - (π,ρ)107↑e20
                          = 0
 _EmbdConstr_vnp5e21#20: vnp5 - (π,ρ)108↑e21  = 0
 BwCapConstr_slink1#21:  2 (π,ρ)26↑e9 + 2 (π,ρ)27↑e9
                         + 2 (π,ρ)28↑e9 + 2 (π,ρ)29↑e9
                         + 2 (π,ρ)33↑e9 + 2 (π,ρ)34↑e9
                         + 5 (π,ρ)35↑e10 + 5 (π,ρ)36↑e10
                         + 5 (π,ρ)37↑e10 + 5 (π,ρ)38↑e10
                         + 5 (π,ρ)39↑e10 + 5 (π,ρ)40↑e10
                         + 5 (π,ρ)41↑e10 + 5 (π,ρ)42↑e10
                         + 5 (π,ρ)43↑e10 + 5 (π,ρ)44↑e10
                         + (π,ρ)45↑e10 + (π,ρ)46↑e10
                         + (π,ρ)47↑e10 + 5 (π,ρ)60↑e12
                         + 5 (π,ρ)61↑e12 + 5 (π,ρ)62↑e12
                         <= 20
 BwCapConstr_slink2#22:  2 (π,ρ)30↑e9 + 2 (π,ρ)31↑e9
                         + 2 (π,ρ)32↑e9 + 5 (π,ρ)35↑e10
                         + 5 (π,ρ)36↑e10 + 5 (π,ρ)37↑e10
                         + 5 (π,ρ)38↑e10 + 5 (π,ρ)39↑e10
                         + 5 (π,ρ)40↑e10 + 5 (π,ρ)41↑e10
                         + 5 (π,ρ)42↑e10 + 5 (π,ρ)43↑e10
                         + 5 (π,ρ)44↑e10 + 5 (π,ρ)45↑e10
                         + 5 (π,ρ)46↑e10 + 5 (π,ρ)47↑e10
                         + 5 (π,ρ)60↑e12 + 5 (π,ρ)61↑e12
                         + 5 (π,ρ)62↑e12 <= 20
 BwCapConstr_slink3#23:  5 (π,ρ)35↑e10 + 5 (π,ρ)36↑e10
                         + 5 (π,ρ)37↑e10 + 5 (π,ρ)45↑e10
                         + 5 (π,ρ)46↑e10 + 5 (π,ρ)47↑e10
                         + 5 (π,ρ)54↑e12 + 5 (π,ρ)55↑e12
                         + 5 (π,ρ)56↑e12 + 5 (π,ρ)57↑e12
                         + 5 (π,ρ)58↑e12 + 5 (π,ρ)59↑e12
                         + 5 (π,ρ)60↑e12 + 5 (π,ρ)61↑e12
                         + 5 (π,ρ)62↑e12 + 5 (π,ρ)81↑e13
                         + (π,ρ)86↑e16 + (π,ρ)87↑e16
                         + (π,ρ)88↑e16 + (π,ρ)89↑e16
                         <= 20
 BwCapConstr_slink4#24:  5 (π,ρ)45↑e10 + 5 (π,ρ)46↑e10
                         + 5 (π,ρ)47↑e10 <= 20
 BwCapConstr_slink5#25:  2 (π,ρ)30↑e9 + 2 (π,ρ)31↑e9
                         + 2 (π,ρ)32↑e9 + 5 (π,ρ)54↑e12
                         + 5 (π,ρ)55↑e12 + 5 (π,ρ)56↑e12
                         + 5 (π,ρ)67↑e13 + 5 (π,ρ)68↑e13
                         + 5 (π,ρ)69↑e13 + 5 (π,ρ)70↑e13
                         + 5 (π,ρ)75↑e13 + 5 (π,ρ)76↑e13
                         + 5 (π,ρ)77↑e13 + 5 (π,ρ)78↑e13
                         + (π,ρ)86↑e16 + (π,ρ)87↑e16
                         + (π,ρ)88↑e16 + (π,ρ)89↑e16
                         + (π,ρ)97↑e19 + 2 (π,ρ)98↑e19
                         + 2 (π,ρ)99↑e19 + (π,ρ)100↑e19
                         + (π,ρ)108↑e21 <= 20
 BwCapConstr_slink6#26:  (π,ρ)30↑e9 + (π,ρ)31↑e9
                         + (π,ρ)32↑e9 + 5 (π,ρ)35↑e10
                         + 5 (π,ρ)36↑e10 + 5 (π,ρ)38↑e10
                         + 5 (π,ρ)40↑e10 + 5 (π,ρ)41↑e10
                         + 5 (π,ρ)44↑e10 + (π,ρ)45↑e10
                         + (π,ρ)46↑e10 + 5 (π,ρ)54↑e12
                         + 5 (π,ρ)55↑e12 + 5 (π,ρ)57↑e12
                         + 5 (π,ρ)58↑e12 + 5 (π,ρ)59↑e12
                         + 5 (π,ρ)60↑e12 + 5 (π,ρ)61↑e12
                         + 5 (π,ρ)63↑e12 + 5 (π,ρ)64↑e12
                         + 5 (π,ρ)65↑e12 + 5 (π,ρ)66↑e12
                         + 5 (π,ρ)67↑e13 + 5 (π,ρ)69↑e13
                         + 5 (π,ρ)70↑e13 + 5 (π,ρ)71↑e13
                         + 5 (π,ρ)72↑e13 + 5 (π,ρ)73↑e13
                         + 5 (π,ρ)74↑e13 + 5 (π,ρ)75↑e13
                         + 5 (π,ρ)76↑e13 + 5 (π,ρ)77↑e13
                         + 5 (π,ρ)79↑e13 + 5 (π,ρ)80↑e13
                         + 5 (π,ρ)81↑e13 + 5 (π,ρ)82↑e13
                         + 3 (π,ρ)83↑e14 + 3 (π,ρ)84↑e14
                         + 2 (π,ρ)98↑e19 + 2 (π,ρ)99↑e19
                         + 3 (π,ρ)102↑e20
                         + 3 (π,ρ)104↑e20
                         + 5 (π,ρ)108↑e21 <= 13
 BwCapConstr_slink7#27:  (π,ρ)26↑e9 + (π,ρ)27↑e9
                         + (π,ρ)28↑e9 + (π,ρ)29↑e9
                         + (π,ρ)33↑e9 + (π,ρ)34↑e9
                         + 5 (π,ρ)41↑e10 + 5 (π,ρ)42↑e10
                         + 5 (π,ρ)43↑e10 + 5 (π,ρ)44↑e10
                         + 5 (π,ρ)57↑e12 + 5 (π,ρ)58↑e12
                         + 5 (π,ρ)59↑e12 + (π,ρ)73↑e13
                         + 5 (π,ρ)81↑e13 + 2 (π,ρ)97↑e19
                         + 2 (π,ρ)98↑e19 + (π,ρ)99↑e19
                         + 2 (π,ρ)100↑e19
                         + 5 (π,ρ)108↑e21 <= 20
 BwCapConstr_slink8#28:  5 (π,ρ)38↑e10 + 5 (π,ρ)39↑e10
                         + 5 (π,ρ)40↑e10 + 5 (π,ρ)67↑e13
                         + 5 (π,ρ)68↑e13 + 5 (π,ρ)69↑e13
                         + 5 (π,ρ)70↑e13 + 5 (π,ρ)73↑e13
                         + 5 (π,ρ)75↑e13 + 5 (π,ρ)76↑e13
                         + 5 (π,ρ)77↑e13 + 5 (π,ρ)78↑e13
                         <= 20
 BwCapConstr_slink9#29:  3 (π,ρ)3↑e6 + 3 (π,ρ)7↑e6
                         + 3 (π,ρ)11↑e7 + 3 (π,ρ)12↑e7
                         + 3 (π,ρ)14↑e7 + 2 (π,ρ)27↑e9
                         + 2 (π,ρ)29↑e9 + 2 (π,ρ)31↑e9
                         + 2 (π,ρ)34↑e9 + 5 (π,ρ)36↑e10
                         + 4 (π,ρ)40↑e10 + 5 (π,ρ)41↑e10
                         + 5 (π,ρ)42↑e10 + 5 (π,ρ)43↑e10
                         + 5 (π,ρ)44↑e10 + (π,ρ)45↑e10
                         + 2 (π,ρ)47↑e10 + (π,ρ)54↑e12
                         + 3 (π,ρ)59↑e12 + (π,ρ)60↑e12
                         + 5 (π,ρ)63↑e12 + 5 (π,ρ)64↑e12
                         + 5 (π,ρ)65↑e12 + 5 (π,ρ)66↑e12
                         + 5 (π,ρ)69↑e13 + 4 (π,ρ)70↑e13
                         + (π,ρ)71↑e13 + 5 (π,ρ)72↑e13
                         + (π,ρ)74↑e13 + (π,ρ)75↑e13
                         + 5 (π,ρ)79↑e13 + 5 (π,ρ)80↑e13
                         + 2 (π,ρ)99↑e19 + 3 (π,ρ)101↑e20
                         + 3 (π,ρ)103↑e20
                         + 3 (π,ρ)104↑e20
                         + 3 (π,ρ)105↑e20
                         + 3 (π,ρ)106↑e20
                         + 3 (π,ρ)107↑e20 <= 16
 BwCapConstr_slink10#30: 4 (π,ρ)48↑e11 + 4 (π,ρ)49↑e11
                         + 4 (π,ρ)50↑e11 + 4 (π,ρ)51↑e11
                         + 4 (π,ρ)52↑e11 + 4 (π,ρ)53↑e11
                         + 5 (π,ρ)63↑e12 + 5 (π,ρ)64↑e12
                         + 5 (π,ρ)65↑e12 + 5 (π,ρ)66↑e12
                         + (π,ρ)85↑e16 <= 20
 BwCapConstr_slink11#31: 5 (π,ρ)35↑e10 + 5 (π,ρ)36↑e10
                         + 5 (π,ρ)37↑e10 + 4 (π,ρ)48↑e11
                         + 4 (π,ρ)49↑e11 + 4 (π,ρ)50↑e11
                         + 4 (π,ρ)51↑e11 + 4 (π,ρ)52↑e11
                         + 4 (π,ρ)53↑e11 + (π,ρ)54↑e12
                         + (π,ρ)55↑e12 + (π,ρ)56↑e12
                         + (π,ρ)57↑e12 + (π,ρ)58↑e12
                         + (π,ρ)59↑e12 + (π,ρ)60↑e12
                         + (π,ρ)61↑e12 + (π,ρ)62↑e12
                         + (π,ρ)63↑e12 + (π,ρ)64↑e12
                         + 5 (π,ρ)65↑e12 + (π,ρ)66↑e12
                         + 5 (π,ρ)81↑e13 + (π,ρ)85↑e16
                         + (π,ρ)86↑e16 + (π,ρ)87↑e16
                         + (π,ρ)88↑e16 + (π,ρ)89↑e16
                         + 3 (π,ρ)107↑e20 <= 20
 BwCapConstr_slink12#32: 3 (π,ρ)15↑e7 + 2 (π,ρ)32↑e9
                         + 3 (π,ρ)83↑e14 + 3 (π,ρ)84↑e14
                         + 2 (π,ρ)97↑e19 + 2 (π,ρ)98↑e19
                         + 2 (π,ρ)99↑e19 + 3 (π,ρ)101↑e20
                         + 3 (π,ρ)102↑e20
                         + 3 (π,ρ)103↑e20
                         + 3 (π,ρ)105↑e20
                         + 3 (π,ρ)106↑e20
                         + 3 (π,ρ)107↑e20 <= 15
 BwCapConstr_slink13#33: 2 (π,ρ)0↑e2 + 3 (π,ρ)2↑e6
                         + 3 (π,ρ)3↑e6 + 3 (π,ρ)6↑e6
                         + 3 (π,ρ)7↑e6 + 3 (π,ρ)8↑e6
                         + 3 (π,ρ)10↑e7 + 3 (π,ρ)11↑e7
                         + 3 (π,ρ)12↑e7 + 2 (π,ρ)14↑e7
                         + 2 (π,ρ)15↑e7 + 3 (π,ρ)16↑e7
                         + 4 (π,ρ)35↑e10 + 4 (π,ρ)38↑e10
                         + 4 (π,ρ)41↑e10 + 2 (π,ρ)44↑e10
                         + 5 (π,ρ)46↑e10 + (π,ρ)55↑e12
                         + (π,ρ)56↑e12 + (π,ρ)59↑e12
                         + (π,ρ)61↑e12 + (π,ρ)62↑e12
                         + 5 (π,ρ)67↑e13 + (π,ρ)76↑e13
                         + 5 (π,ρ)77↑e13 + (π,ρ)78↑e13
                         + 5 (π,ρ)82↑e13 + (π,ρ)91↑e18
                         + 2 (π,ρ)100↑e19 <= 15
 BwCapConstr_slink14#34: 2 (π,ρ)28↑e9 + 2 (π,ρ)29↑e9
                         + 5 (π,ρ)65↑e12 <= 20
 BwCapConstr_slink15#35: 2 (π,ρ)26↑e9 + 2 (π,ρ)27↑e9
                         + 2 (π,ρ)30↑e9 + 2 (π,ρ)31↑e9
                         + 2 (π,ρ)32↑e9 + 2 (π,ρ)33↑e9
                         + 2 (π,ρ)34↑e9 + 5 (π,ρ)37↑e10
                         + 5 (π,ρ)39↑e10 + 5 (π,ρ)42↑e10
                         + 5 (π,ρ)43↑e10 + (π,ρ)47↑e10
                         + 5 (π,ρ)56↑e12 + 5 (π,ρ)57↑e12
                         + 5 (π,ρ)58↑e12 + 5 (π,ρ)59↑e12
                         + 5 (π,ρ)62↑e12 + 5 (π,ρ)63↑e12
                         + 5 (π,ρ)64↑e12 + 5 (π,ρ)66↑e12
                         + 5 (π,ρ)68↑e13 + 5 (π,ρ)71↑e13
                         + 5 (π,ρ)72↑e13 + 5 (π,ρ)73↑e13
                         + 5 (π,ρ)74↑e13 + 5 (π,ρ)78↑e13
                         + 5 (π,ρ)79↑e13 + 5 (π,ρ)80↑e13
                         + 5 (π,ρ)81↑e13 + 5 (π,ρ)82↑e13
                         + 3 (π,ρ)83↑e14 + 3 (π,ρ)84↑e14
                         + (π,ρ)86↑e16 + (π,ρ)87↑e16
                         + (π,ρ)88↑e16 + (π,ρ)89↑e16
                         <= 13
 BwCapConstr_slink16#36: 3 (π,ρ)2↑e6 + 3 (π,ρ)3↑e6
                         + 3 (π,ρ)4↑e6 + 3 (π,ρ)5↑e6
                         + 3 (π,ρ)9↑e6 + 3 (π,ρ)13↑e7
                         + 3 (π,ρ)14↑e7 + 3 (π,ρ)15↑e7
                         + 3 (π,ρ)16↑e7 + 4 (π,ρ)20↑e8
                         + 4 (π,ρ)24↑e8 + 4 (π,ρ)25↑e8
                         + 2 (π,ρ)28↑e9 + 2 (π,ρ)29↑e9
                         + 4 (π,ρ)37↑e10 + 4 (π,ρ)39↑e10
                         + 4 (π,ρ)42↑e10 + (π,ρ)47↑e10
                         + (π,ρ)56↑e12 + (π,ρ)57↑e12
                         + (π,ρ)59↑e12 + (π,ρ)62↑e12
                         + (π,ρ)63↑e12 + 5 (π,ρ)68↑e13
                         + (π,ρ)78↑e13 <= 17
 BwCapConstr_slink17#37: 5 (π,ρ)45↑e10 + 5 (π,ρ)46↑e10
                         + 5 (π,ρ)47↑e10 <= 20
 BwCapConstr_slink18#38: 2 (π,ρ)33↑e9 + 2 (π,ρ)34↑e9
                         + (π,ρ)66↑e12 <= 17
 BwCapConstr_slink19#39: 5 (π,ρ)66↑e12 + (π,ρ)94↑e18
                         + (π,ρ)95↑e18 <= 17
 BwCapConstr_slink20#40: 2 (π,ρ)0↑e2 + 3 (π,ρ)4↑e6
                         + 3 (π,ρ)5↑e6 + 3 (π,ρ)6↑e6
                         + 3 (π,ρ)7↑e6 + 3 (π,ρ)8↑e6
                         + 3 (π,ρ)9↑e6 + 3 (π,ρ)10↑e7
                         + 2 (π,ρ)12↑e7 + 2 (π,ρ)13↑e7
                         + 4 (π,ρ)20↑e8 + 4 (π,ρ)24↑e8
                         + 4 (π,ρ)25↑e8 + 4 (π,ρ)44↑e10
                         + 5 (π,ρ)55↑e12 + 5 (π,ρ)57↑e12
                         + 5 (π,ρ)61↑e12 + 5 (π,ρ)63↑e12
                         + (π,ρ)65↑e12 + 4 (π,ρ)67↑e13
                         + 4 (π,ρ)68↑e13 + 5 (π,ρ)76↑e13
                         + 4 (π,ρ)77↑e13 + 5 (π,ρ)82↑e13
                         + (π,ρ)90↑e18 + (π,ρ)91↑e18
                         + (π,ρ)93↑e18 + (π,ρ)94↑e18
                         + (π,ρ)96↑e18 + 2 (π,ρ)100↑e19
                         <= 15
 BwCapConstr_slink21#41: 3 (π,ρ)8↑e6 + 3 (π,ρ)83↑e14
                         + 3 (π,ρ)84↑e14 + (π,ρ)93↑e18
                         + (π,ρ)96↑e18 + 3 (π,ρ)101↑e20
                         + 3 (π,ρ)102↑e20
                         + 3 (π,ρ)103↑e20 <= 18
 BwCapConstr_slink22#42: 5 (π,ρ)1↑e4 + 3 (π,ρ)5↑e6
                         + 4 (π,ρ)17↑e8 + 3 (π,ρ)18↑e8
                         + 4 (π,ρ)21↑e8 + 3 (π,ρ)22↑e8
                         + 5 (π,ρ)40↑e10 + 2 (π,ρ)58↑e12
                         + 2 (π,ρ)64↑e12 + 5 (π,ρ)65↑e12
                         + 5 (π,ρ)66↑e12 + 4 (π,ρ)69↑e13
                         + (π,ρ)92↑e18 + 2 (π,ρ)98↑e19
                         <= 20
 BwCapConstr_slink23#43: 2 (π,ρ)0↑e2 + 4 (π,ρ)1↑e4
                         + 3 (π,ρ)6↑e6 + 3 (π,ρ)7↑e6
                         + 2 (π,ρ)9↑e6 + 3 (π,ρ)10↑e7
                         + 4 (π,ρ)17↑e8 + 4 (π,ρ)18↑e8
                         + 4 (π,ρ)21↑e8 + 4 (π,ρ)22↑e8
                         + 2 (π,ρ)26↑e9 + 2 (π,ρ)27↑e9
                         + 2 (π,ρ)28↑e9 + 2 (π,ρ)29↑e9
                         + 2 (π,ρ)33↑e9 + 2 (π,ρ)34↑e9
                         + 2 (π,ρ)37↑e10 + 2 (π,ρ)39↑e10
                         + (π,ρ)40↑e10 + 2 (π,ρ)42↑e10
                         + 4 (π,ρ)58↑e12 + 4 (π,ρ)64↑e12
                         + 5 (π,ρ)69↑e13 + (π,ρ)90↑e18
                         + (π,ρ)91↑e18 + (π,ρ)92↑e18
                         + (π,ρ)95↑e18 + 2 (π,ρ)97↑e19
                         + 2 (π,ρ)99↑e19 + 2 (π,ρ)100↑e19
                         + 3 (π,ρ)105↑e20
                         + 3 (π,ρ)106↑e20
                         + 3 (π,ρ)107↑e20 <= 16
 BwCapConstr_slink24#44: 3 (π,ρ)11↑e7 + 3 (π,ρ)12↑e7
                         <= 20
 BwCapConstr_slink25#45: 5 (π,ρ)1↑e4 + 4 (π,ρ)18↑e8
                         + 4 (π,ρ)22↑e8 + 4 (π,ρ)52↑e11
                         + (π,ρ)70↑e13 + 5 (π,ρ)72↑e13
                         + 5 (π,ρ)75↑e13 + 5 (π,ρ)76↑e13
                         + 5 (π,ρ)77↑e13 + 5 (π,ρ)78↑e13
                         + 4 (π,ρ)80↑e13 + 3 (π,ρ)104↑e20
                         <= 19
 BwCapConstr_slink26#46: 3 (π,ρ)17↑e8 + (π,ρ)20↑e8
                         + 3 (π,ρ)21↑e8 + (π,ρ)24↑e8
                         + (π,ρ)25↑e8 + (π,ρ)36↑e10
                         + 5 (π,ρ)38↑e10 + 5 (π,ρ)39↑e10
                         + 5 (π,ρ)40↑e10 + 5 (π,ρ)41↑e10
                         + 5 (π,ρ)42↑e10 + 5 (π,ρ)43↑e10
                         + 5 (π,ρ)44↑e10 + (π,ρ)45↑e10
                         + (π,ρ)46↑e10 + (π,ρ)47↑e10
                         + 4 (π,ρ)48↑e11 + 4 (π,ρ)49↑e11
                         + 4 (π,ρ)50↑e11 + 4 (π,ρ)51↑e11
                         + (π,ρ)54↑e12 + 2 (π,ρ)56↑e12
                         + 5 (π,ρ)57↑e12 + 2 (π,ρ)58↑e12
                         + 5 (π,ρ)59↑e12 + (π,ρ)60↑e12
                         + 2 (π,ρ)62↑e12 + 5 (π,ρ)63↑e12
                         + 2 (π,ρ)64↑e12 + 5 (π,ρ)66↑e12
                         + 5 (π,ρ)67↑e13 + 5 (π,ρ)68↑e13
                         + 5 (π,ρ)69↑e13 + 5 (π,ρ)70↑e13
                         + 2 (π,ρ)71↑e13 + 5 (π,ρ)73↑e13
                         + (π,ρ)74↑e13 + (π,ρ)75↑e13
                         + 2 (π,ρ)78↑e13 + 5 (π,ρ)79↑e13
                         + 3 (π,ρ)82↑e13 + 3 (π,ρ)103↑e20
                         + 3 (π,ρ)106↑e20 <= 16
 BwCapConstr_slink27#47: 3 (π,ρ)18↑e8 + 3 (π,ρ)22↑e8
                         + 4 (π,ρ)51↑e11 + 2 (π,ρ)72↑e13
                         + 5 (π,ρ)80↑e13 + (π,ρ)85↑e16
                         <= 19
 BwCapConstr_slink28#48: 5 (π,ρ)1↑e4 <= 18
 BwCapConstr_slink29#49: 3 (π,ρ)6↑e6 + 3 (π,ρ)7↑e6
                         + 4 (π,ρ)19↑e8 + 4 (π,ρ)23↑e8
                         + 4 (π,ρ)25↑e8 + (π,ρ)35↑e10
                         + (π,ρ)37↑e10 + (π,ρ)38↑e10
                         + (π,ρ)39↑e10 + (π,ρ)40↑e10
                         + (π,ρ)41↑e10 + (π,ρ)42↑e10
                         + (π,ρ)43↑e10 + 2 (π,ρ)68↑e13
                         + (π,ρ)69↑e13 + (π,ρ)90↑e18
                         + (π,ρ)91↑e18 + (π,ρ)92↑e18
                         + (π,ρ)96↑e18 + 3 (π,ρ)105↑e20
                         + 3 (π,ρ)106↑e20
                         + 3 (π,ρ)107↑e20 <= 20
 BwCapConstr_slink30#50: 5 (π,ρ)0↑e2 + 3 (π,ρ)13↑e7
                         + 3 (π,ρ)14↑e7 + 3 (π,ρ)15↑e7
                         + 3 (π,ρ)16↑e7 + 4 (π,ρ)17↑e8
                         + 4 (π,ρ)18↑e8 + 4 (π,ρ)19↑e8
                         + 4 (π,ρ)21↑e8 + 4 (π,ρ)22↑e8
                         + 4 (π,ρ)23↑e8 + 4 (π,ρ)25↑e8
                         + 2 (π,ρ)26↑e9 + 2 (π,ρ)27↑e9
                         + 2 (π,ρ)28↑e9 + 2 (π,ρ)29↑e9
                         + 2 (π,ρ)30↑e9 + 2 (π,ρ)31↑e9
                         + 2 (π,ρ)32↑e9 + 2 (π,ρ)33↑e9
                         + 2 (π,ρ)34↑e9 + 2 (π,ρ)43↑e10
                         + 5 (π,ρ)58↑e12 + 5 (π,ρ)64↑e12
                         + (π,ρ)86↑e16 + (π,ρ)89↑e16
                         + (π,ρ)96↑e18 <= 16
 BwCapConstr_slink31#51: 3 (π,ρ)2↑e6 + 3 (π,ρ)3↑e6
                         + 3 (π,ρ)4↑e6 + 3 (π,ρ)5↑e6
                         + 3 (π,ρ)8↑e6 + 4 (π,ρ)17↑e8
                         + 4 (π,ρ)18↑e8 + 4 (π,ρ)19↑e8
                         + 4 (π,ρ)20↑e8 + (π,ρ)44↑e10
                         + 5 (π,ρ)71↑e13 + 5 (π,ρ)72↑e13
                         + 5 (π,ρ)73↑e13 + 5 (π,ρ)74↑e13
                         + (π,ρ)93↑e18 + (π,ρ)94↑e18
                         + (π,ρ)95↑e18 + 3 (π,ρ)101↑e20
                         + 3 (π,ρ)102↑e20
                         + 3 (π,ρ)103↑e20 <= 20
 BwCapConstr_slink32#52: 2 (π,ρ)33↑e9 + 2 (π,ρ)34↑e9
                         + (π,ρ)94↑e18 + (π,ρ)95↑e18
                         <= 20
 BwCapConstr_slink33#53: 4 (π,ρ)0↑e2 + 3 (π,ρ)2↑e6
                         + 3 (π,ρ)3↑e6 + 3 (π,ρ)4↑e6
                         + 3 (π,ρ)5↑e6 + 3 (π,ρ)13↑e7
                         + 3 (π,ρ)14↑e7 + 3 (π,ρ)15↑e7
                         + 3 (π,ρ)16↑e7 + 4 (π,ρ)20↑e8
                         + 4 (π,ρ)24↑e8 + 4 (π,ρ)25↑e8
                         + 2 (π,ρ)26↑e9 + 2 (π,ρ)27↑e9
                         + 2 (π,ρ)28↑e9 + 2 (π,ρ)29↑e9
                         + 2 (π,ρ)30↑e9 + 2 (π,ρ)31↑e9
                         + 2 (π,ρ)32↑e9 + 2 (π,ρ)43↑e10
                         + (π,ρ)58↑e12 + (π,ρ)64↑e12
                         + 5 (π,ρ)71↑e13 + 5 (π,ρ)72↑e13
                         + 5 (π,ρ)73↑e13 + 5 (π,ρ)74↑e13
                         + 3 (π,ρ)84↑e14 <= 14
 BwCapConstr_slink34#54: 3 (π,ρ)9↑e6 + 5 (π,ρ)79↑e13
                         + 5 (π,ρ)80↑e13 + 5 (π,ρ)81↑e13
                         + 5 (π,ρ)82↑e13 + (π,ρ)86↑e16
                         + (π,ρ)87↑e16 + (π,ρ)88↑e16
                         + (π,ρ)89↑e16 <= 16
 BwCapConstr_slink35#55: 4 (π,ρ)21↑e8 + 4 (π,ρ)22↑e8
                         + 4 (π,ρ)23↑e8 + 4 (π,ρ)24↑e8
                         + 3 (π,ρ)83↑e14 + 3 (π,ρ)84↑e14
                         + (π,ρ)85↑e16 + (π,ρ)86↑e16
                         + (π,ρ)89↑e16 <= 20
 BwCapConstr_slink36#56: 3 (π,ρ)9↑e6 + 4 (π,ρ)21↑e8
                         + 4 (π,ρ)22↑e8 + 4 (π,ρ)23↑e8
                         + 4 (π,ρ)24↑e8 + 5 (π,ρ)79↑e13
                         + 5 (π,ρ)80↑e13 + 5 (π,ρ)81↑e13
                         + 5 (π,ρ)82↑e13 + (π,ρ)85↑e16
                         + (π,ρ)87↑e16 + (π,ρ)88↑e16
                         <= 16
 BwCapConstr_slink37#57: (π,ρ)85↑e16 + 3 (π,ρ)104↑e20
                         <= 20
 BwCapConstr_slink38#58: 4 (π,ρ)51↑e11 + 4 (π,ρ)52↑e11
                         + (π,ρ)70↑e13 + 5 (π,ρ)75↑e13
                         + 5 (π,ρ)76↑e13 + 5 (π,ρ)77↑e13
                         + 5 (π,ρ)78↑e13 <= 20
 BwCapConstr_slink39#59: 4 (π,ρ)19↑e8 + 4 (π,ρ)23↑e8
                         + (π,ρ)36↑e10 + 4 (π,ρ)48↑e11
                         + 4 (π,ρ)49↑e11 + (π,ρ)67↑e13
                         + (π,ρ)68↑e13 + (π,ρ)69↑e13
                         + 5 (π,ρ)71↑e13 + 5 (π,ρ)72↑e13
                         + 5 (π,ρ)73↑e13 + 5 (π,ρ)74↑e13
                         + (π,ρ)77↑e13 + 5 (π,ρ)79↑e13
                         + 5 (π,ρ)80↑e13 + 5 (π,ρ)81↑e13
                         + 5 (π,ρ)82↑e13 + (π,ρ)87↑e16
                         <= 20
 BwCapConstr_slink40#60: 4 (π,ρ)17↑e8 + 4 (π,ρ)18↑e8
                         + 4 (π,ρ)19↑e8 + 4 (π,ρ)20↑e8
                         + 4 (π,ρ)21↑e8 + 4 (π,ρ)22↑e8
                         + 4 (π,ρ)23↑e8 + 4 (π,ρ)24↑e8
                         + 4 (π,ρ)25↑e8 + 5 (π,ρ)35↑e10
                         + 5 (π,ρ)36↑e10 + 5 (π,ρ)37↑e10
                         + 5 (π,ρ)38↑e10 + 5 (π,ρ)39↑e10
                         + 5 (π,ρ)40↑e10 + 5 (π,ρ)41↑e10
                         + 5 (π,ρ)42↑e10 + 5 (π,ρ)43↑e10
                         + 5 (π,ρ)44↑e10 + (π,ρ)88↑e16
                         + (π,ρ)92↑e18 <= 16
 BwCapConstr_slink41#61: 3 (π,ρ)5↑e6 + 4 (π,ρ)19↑e8
                         + 4 (π,ρ)23↑e8 + (π,ρ)36↑e10
                         + 4 (π,ρ)48↑e11 + 4 (π,ρ)49↑e11
                         + 4 (π,ρ)50↑e11 + 4 (π,ρ)51↑e11
                         + 4 (π,ρ)52↑e11 + 4 (π,ρ)53↑e11
                         + 5 (π,ρ)67↑e13 + 5 (π,ρ)68↑e13
                         + 5 (π,ρ)69↑e13 + 5 (π,ρ)70↑e13
                         + 2 (π,ρ)71↑e13 + 2 (π,ρ)72↑e13
                         + 2 (π,ρ)73↑e13 + (π,ρ)75↑e13
                         + (π,ρ)76↑e13 + (π,ρ)78↑e13
                         + 5 (π,ρ)79↑e13 + 5 (π,ρ)80↑e13
                         + 5 (π,ρ)81↑e13 + 5 (π,ρ)82↑e13
                         + (π,ρ)87↑e16 <= 20
 BwCapConstr_slink42#62: 3 (π,ρ)4↑e6 + (π,ρ)17↑e8
                         + (π,ρ)18↑e8 + (π,ρ)19↑e8
                         + (π,ρ)20↑e8 + (π,ρ)21↑e8
                         + (π,ρ)22↑e8 + (π,ρ)23↑e8
                         + (π,ρ)24↑e8 + (π,ρ)25↑e8
                         + 5 (π,ρ)35↑e10 + 5 (π,ρ)36↑e10
                         + 5 (π,ρ)37↑e10 + 5 (π,ρ)38↑e10
                         + 5 (π,ρ)39↑e10 + 5 (π,ρ)40↑e10
                         + 5 (π,ρ)41↑e10 + 5 (π,ρ)42↑e10
                         + 5 (π,ρ)43↑e10 + 5 (π,ρ)44↑e10
                         + 5 (π,ρ)45↑e10 + 5 (π,ρ)46↑e10
                         + 5 (π,ρ)47↑e10 + 4 (π,ρ)49↑e11
                         + 4 (π,ρ)53↑e11 + 2 (π,ρ)74↑e13
                         + (π,ρ)88↑e16 + 3 (π,ρ)107↑e20
                         <= 16
 BwCapConstr_slink43#63: 4 (π,ρ)50↑e11 + 4 (π,ρ)53↑e11
                         + 2 (π,ρ)74↑e13 <= 20
 BwCapConstr_slink44#64: 5 (π,ρ)45↑e10 + 5 (π,ρ)46↑e10
                         + 5 (π,ρ)47↑e10 <= 20
Bounds
 0 <= vnp1 <= 1
 0 <= (π,ρ)0↑e2 <= 1
 0 <= vnp2 <= 1
 0 <= (π,ρ)1↑e4 <= 1
 0 <= (π,ρ)2↑e6 <= 1
 0 <= (π,ρ)3↑e6 <= 1
 0 <= (π,ρ)4↑e6 <= 1
 0 <= (π,ρ)5↑e6 <= 1
 0 <= (π,ρ)6↑e6 <= 1
 0 <= (π,ρ)7↑e6 <= 1
 0 <= (π,ρ)8↑e6 <= 1
 0 <= (π,ρ)9↑e6 <= 1
 0 <= (π,ρ)10↑e7 <= 1
 0 <= (π,ρ)11↑e7 <= 1
 0 <= (π,ρ)12↑e7 <= 1
 0 <= (π,ρ)13↑e7 <= 1
 0 <= (π,ρ)14↑e7 <= 1
 0 <= (π,ρ)15↑e7 <= 1
 0 <= (π,ρ)16↑e7 <= 1
 0 <= vnp3 <= 1
 0 <= (π,ρ)17↑e8 <= 1
 0 <= (π,ρ)18↑e8 <= 1
 0 <= (π,ρ)19↑e8 <= 1
 0 <= (π,ρ)20↑e8 <= 1
 0 <= (π,ρ)21↑e8 <= 1
 0 <= (π,ρ)22↑e8 <= 1
 0 <= (π,ρ)23↑e8 <= 1
 0 <= (π,ρ)24↑e8 <= 1
 0 <= (π,ρ)25↑e8 <= 1
 0 <= (π,ρ)26↑e9 <= 1
 0 <= (π,ρ)27↑e9 <= 1
 0 <= (π,ρ)28↑e9 <= 1
 0 <= (π,ρ)29↑e9 <= 1
 0 <= (π,ρ)30↑e9 <= 1
 0 <= (π,ρ)31↑e9 <= 1
 0 <= (π,ρ)32↑e9 <= 1
 0 <= (π,ρ)33↑e9 <= 1
 0 <= (π,ρ)34↑e9 <= 1
 0 <= (π,ρ)35↑e10 <= 1
 0 <= (π,ρ)36↑e10 <= 1
 0 <= (π,ρ)37↑e10 <= 1
 0 <= (π,ρ)38↑e10 <= 1
 0 <= (π,ρ)39↑e10 <= 1
 0 <= (π,ρ)40↑e10 <= 1
 0 <= (π,ρ)41↑e10 <= 1
 0 <= (π,ρ)42↑e10 <= 1
 0 <= (π,ρ)43↑e10 <= 1
 0 <= (π,ρ)44↑e10 <= 1
 0 <= (π,ρ)45↑e10 <= 1
 0 <= (π,ρ)46↑e10 <= 1
 0 <= (π,ρ)47↑e10 <= 1
 0 <= vnp4 <= 1
 0 <= (π,ρ)48↑e11 <= 1
 0 <= (π,ρ)49↑e11 <= 1
 0 <= (π,ρ)50↑e11 <= 1
 0 <= (π,ρ)51↑e11 <= 1
 0 <= (π,ρ)52↑e11 <= 1
 0 <= (π,ρ)53↑e11 <= 1
 0 <= (π,ρ)54↑e12 <= 1
 0 <= (π,ρ)55↑e12 <= 1
 0 <= (π,ρ)56↑e12 <= 1
 0 <= (π,ρ)57↑e12 <= 1
 0 <= (π,ρ)58↑e12 <= 1
 0 <= (π,ρ)59↑e12 <= 1
 0 <= (π,ρ)60↑e12 <= 1
 0 <= (π,ρ)61↑e12 <= 1
 0 <= (π,ρ)62↑e12 <= 1
 0 <= (π,ρ)63↑e12 <= 1
 0 <= (π,ρ)64↑e12 <= 1
 0 <= (π,ρ)65↑e12 <= 1
 0 <= (π,ρ)66↑e12 <= 1
 0 <= (π,ρ)67↑e13 <= 1
 0 <= (π,ρ)68↑e13 <= 1
 0 <= (π,ρ)69↑e13 <= 1
 0 <= (π,ρ)70↑e13 <= 1
 0 <= (π,ρ)71↑e13 <= 1
 0 <= (π,ρ)72↑e13 <= 1
 0 <= (π,ρ)73↑e13 <= 1
 0 <= (π,ρ)74↑e13 <= 1
 0 <= (π,ρ)75↑e13 <= 1
 0 <= (π,ρ)76↑e13 <= 1
 0 <= (π,ρ)77↑e13 <= 1
 0 <= (π,ρ)78↑e13 <= 1
 0 <= (π,ρ)79↑e13 <= 1
 0 <= (π,ρ)80↑e13 <= 1
 0 <= (π,ρ)81↑e13 <= 1
 0 <= (π,ρ)82↑e13 <= 1
 0 <= (π,ρ)83↑e14 <= 1
 0 <= (π,ρ)84↑e14 <= 1
 0 <= (π,ρ)85↑e16 <= 1
 0 <= (π,ρ)86↑e16 <= 1
 0 <= (π,ρ)87↑e16 <= 1
 0 <= (π,ρ)88↑e16 <= 1
 0 <= (π,ρ)89↑e16 <= 1
 0 <= vnp5 <= 1
 0 <= (π,ρ)90↑e18 <= 1
 0 <= (π,ρ)91↑e18 <= 1
 0 <= (π,ρ)92↑e18 <= 1
 0 <= (π,ρ)93↑e18 <= 1
 0 <= (π,ρ)94↑e18 <= 1
 0 <= (π,ρ)95↑e18 <= 1
 0 <= (π,ρ)96↑e18 <= 1
 0 <= (π,ρ)97↑e19 <= 1
 0 <= (π,ρ)98↑e19 <= 1
 0 <= (π,ρ)99↑e19 <= 1
 0 <= (π,ρ)100↑e19 <= 1
 0 <= (π,ρ)101↑e20 <= 1
 0 <= (π,ρ)102↑e20 <= 1
 0 <= (π,ρ)103↑e20 <= 1
 0 <= (π,ρ)104↑e20 <= 1
 0 <= (π,ρ)105↑e20 <= 1
 0 <= (π,ρ)106↑e20 <= 1
 0 <= (π,ρ)107↑e20 <= 1
 0 <= (π,ρ)108↑e21 <= 1
Binaries
 vnp1  (π,ρ)0↑e2  vnp2  (π,ρ)1↑e4  (π,ρ)2↑e6 
 (π,ρ)3↑e6  (π,ρ)4↑e6  (π,ρ)5↑e6 
 (π,ρ)6↑e6  (π,ρ)7↑e6  (π,ρ)8↑e6 
 (π,ρ)9↑e6  (π,ρ)10↑e7  (π,ρ)11↑e7 
 (π,ρ)12↑e7  (π,ρ)13↑e7  (π,ρ)14↑e7 
 (π,ρ)15↑e7  (π,ρ)16↑e7  vnp3  (π,ρ)17↑e8 
 (π,ρ)18↑e8  (π,ρ)19↑e8  (π,ρ)20↑e8 
 (π,ρ)21↑e8  (π,ρ)22↑e8  (π,ρ)23↑e8 
 (π,ρ)24↑e8  (π,ρ)25↑e8  (π,ρ)26↑e9 
 (π,ρ)27↑e9  (π,ρ)28↑e9  (π,ρ)29↑e9 
 (π,ρ)30↑e9  (π,ρ)31↑e9  (π,ρ)32↑e9 
 (π,ρ)33↑e9  (π,ρ)34↑e9  (π,ρ)35↑e10 
 (π,ρ)36↑e10  (π,ρ)37↑e10  (π,ρ)38↑e10 
 (π,ρ)39↑e10  (π,ρ)40↑e10  (π,ρ)41↑e10 
 (π,ρ)42↑e10  (π,ρ)43↑e10  (π,ρ)44↑e10 
 (π,ρ)45↑e10  (π,ρ)46↑e10  (π,ρ)47↑e10  vnp4 
 (π,ρ)48↑e11  (π,ρ)49↑e11  (π,ρ)50↑e11 
 (π,ρ)51↑e11  (π,ρ)52↑e11  (π,ρ)53↑e11 
 (π,ρ)54↑e12  (π,ρ)55↑e12  (π,ρ)56↑e12 
 (π,ρ)57↑e12  (π,ρ)58↑e12  (π,ρ)59↑e12 
 (π,ρ)60↑e12  (π,ρ)61↑e12  (π,ρ)62↑e12 
 (π,ρ)63↑e12  (π,ρ)64↑e12  (π,ρ)65↑e12 
 (π,ρ)66↑e12  (π,ρ)67↑e13  (π,ρ)68↑e13 
 (π,ρ)69↑e13  (π,ρ)70↑e13  (π,ρ)71↑e13 
 (π,ρ)72↑e13  (π,ρ)73↑e13  (π,ρ)74↑e13 
 (π,ρ)75↑e13  (π,ρ)76↑e13  (π,ρ)77↑e13 
 (π,ρ)78↑e13  (π,ρ)79↑e13  (π,ρ)80↑e13 
 (π,ρ)81↑e13  (π,ρ)82↑e13  (π,ρ)83↑e14 
 (π,ρ)84↑e14  (π,ρ)85↑e16  (π,ρ)86↑e16 
 (π,ρ)87↑e16  (π,ρ)88↑e16  (π,ρ)89↑e16  vnp5 
 (π,ρ)90↑e18  (π,ρ)91↑e18  (π,ρ)92↑e18 
 (π,ρ)93↑e18  (π,ρ)94↑e18  (π,ρ)95↑e18 
 (π,ρ)96↑e18  (π,ρ)97↑e19  (π,ρ)98↑e19 
 (π,ρ)99↑e19  (π,ρ)100↑e19  (π,ρ)101↑e20 
 (π,ρ)102↑e20  (π,ρ)103↑e20  (π,ρ)104↑e20 
 (π,ρ)105↑e20  (π,ρ)106↑e20  (π,ρ)107↑e20 
 (π,ρ)108↑e21 
End
